p cnf 21 10
e 1 2 0
a 3 0
e 4 0
a 5 6 0
e 7 8 9 0
a 10 11 0
e 12 13 0
a 14 0
e 15 16 0
a 17 18 19 0
e 20 0
a 21 0
-4 -1 12 0
-21 5 -1 -6 0
11 19 1 20 0
-13 -18 -12 2 5 0
-10 8 18 14 -19 0
-12 17 -7 -13 0
-17 3 9 7 5 0
-4 10 0
6 2 -20 -21 13 0
20 6 -10 -9 -17 0
